peakDumbCharging = 18500; 
Machine = anon_enum(16); 
machineSpeed = [3700,3700,3700,3700,3700,3700,3700,3700,3700,3700,3700,3700,3700,3700,3700,3700]; 
machineLoad = [3700,3700,3700,3700,3700,3700,3700,3700,3700,3700,3700,3700,3700,3700,3700,3700]; 
Car = anon_enum(22); 
demandCar = [1200,17320,20560,11640,5280,8200,15040,3000,5480,16720,2000,10320,3560,11960,5680,9080,4480,26800,33920,23640,32000,31640]; 
arrivalCar = [75,71,70,67,66,66,65,65,63,62,62,61,59,55,48,45,40,37,31,31,30,29]; 
departureCar = [76,77,77,71,69,69,70,68,66,69,63,66,61,61,53,50,44,55,60,53,58,49]; 
